
        $ From http://www.csplib.org/Problems/prob009/data/helmut.pdf
        $ Problem number 128
        $ Sequence length : 25
        language ESSENCE' 1.0
        letting sizemaster be 404
        letting sizes be sequence(3,6,7,14,17,20,21,26,28,31,32,39,46,53,54,68,71,80,88,92,100,111,113,199,205)
        